p cnf 50 15
x 3 5 -7 -10 -12 -16 -19 -20 22 -23 -24 -25 -26 27 28 -29 -32 34 -37 -39 -41 42 45 -49 0
x 1 -2 4 5 8 10 11 -12 13 -16 -17 18 -22 -24 25 26 -28 -29 30 -31 34 35 37 -39 -40 41 -43 49 0
x 1 -2 3 4 -5 -6 -7 -8 -9 10 14 -15 19 -22 -24 30 -33 34 36 -37 -38 -40 41 -42 48 -50 0
x -2 -3 -7 10 -11 -12 13 -14 -17 -18 19 -20 22 -23 -24 25 28 -30 -31 -33 35 36 37 -40 44 45 -46 -47 -50 0
x 1 4 -6 -7 9 11 15 -19 -25 -27 -34 36 37 -38 40 -41 -43 44 -46 48 0
x 1 -2 -4 -7 8 9 -14 -18 -19 20 -22 -23 -24 28 31 33 -36 -37 -38 -40 45 0
x -1 3 -4 -5 -7 13 16 17 -18 21 23 27 29 31 -37 39 -41 43 -44 -46 -48 49 50 0
x -3 -5 -10 13 14 -15 17 18 21 -22 -27 -30 -31 32 33 34 39 -41 43 -46 50 0
x 3 -4 -9 -10 -11 -13 -16 -19 -20 22 24 28 -29 -33 -38 40 -43 -44 -45 50 0
x 1 -2 -5 6 9 -11 14 -19 -22 -23 -25 26 28 -29 30 31 32 -33 35 36 -37 -38 41 44 -45 46 47 48 0
x -2 -5 -9 11 12 -13 -16 -17 18 19 -24 29 -30 33 -34 35 -37 -41 42 45 47 -50 0
x -1 -3 4 5 -7 8 -12 -14 16 -19 -22 25 27 28 -32 33 -34 35 36 -37 -38 -39 43 -44 46 47 0
x 1 2 6 11 -13 14 15 16 21 27 30 31 32 34 -35 36 -37 39 -43 46 47 48 0
x 1 -4 -6 -10 -12 14 -15 -21 -22 -24 -25 27 -30 33 35 -36 37 42 -43 -46 0
x -2 3 4 -7 8 -10 -11 -12 -13 17 21 23 -25 26 28 -30 31 -36 -39 -43 -45 47 0
g -20